100
1000
491
489
485
485
483
479
477
476
476
475
473
472
471
464
462
461
459
456
454
453
449
446
443
439
438
437
417
415
415
410
408
404
400
399
396
391
388
385
381
380
373
372
370
369
364
362
359
356
355
354
353
352
348
345
343
333
330
329
326
323
320
310
307
307
290
288
285
285
282
279
276
273
264
263
263
260
254
251
250
248
246
233
232
231
218
214
205
201
198
196
195
195
195
192
185
184
183
180
170
170
